27	3

10	10	10	

0	0	0	0	3	2	3	4	
1	3	5	2	2	6	8	
9	5	4	3	2	5	6	
1	5	2	2	3	5	6	7	
3	4	1	4	3	10	11	12	
5	5	5	4	2	9	10	
3	3	5	2	2	9	11	
2	2	4	4	2	10	11	
3	3	2	2	2	13	16	
3	3	2	4	1	13	
5	3	3	2	1	13	
3	4	1	4	2	14	15	
1	1	4	4	1	17	
3	2	2	2	1	18	
4	5	5	4	1	20	
1	1	5	4	2	18	19	
1	4	5	4	2	21	24	
9	3	2	3	1	21	
3	5	3	3	1	21	
5	2	4	6	2	22	23	
1	1	6	2	1	26	
3	3	2	1	1	25	
5	1	0	4	1	26	
8	2	2	1	1	25	
5	0	1	3	1	27	
2	2	2	2	1	27	
0	0	0	0	0	
